(set-info :smt-lib-version 2.6)
(set-logic QF_S)
(set-info :source |
Generated by: Shaoke Cui
Generated on: 2025-04-10
Application: Using String Solvers to solve string matching problems
Target solver: cvc5, OSTRICH, Z3, Z3alpha, Z3-noodler
Benchmarks for substring matching problem, which needs to determine whether the pattern string exists in the text string.
|)
(set-info :license "https://creativecommons.org/licenses/by/4.0/")
(set-info :category "crafted")
(set-info :status unsat)
(declare-fun a1() String)
(declare-fun a2() String)
(declare-fun a3() String)
(declare-fun a4() String)
(declare-fun a5() String)
(declare-fun a6() String)
(declare-fun a7() String)
(declare-fun a8() String)
(declare-fun a9() String)
(declare-fun a10() String)
(declare-fun a11() String)
(declare-fun a12() String)
(declare-fun a13() String)
(declare-fun a14() String)
(declare-fun a15() String)
(declare-fun a16() String)
(declare-fun a17() String)
(declare-fun a18() String)
(declare-fun a19() String)
(declare-fun a20() String)
(declare-fun a21() String)
(declare-fun a22() String)
(declare-fun a23() String)
(declare-fun a24() String)
(declare-fun a25() String)
(declare-fun a26() String)
(declare-fun a27() String)
(declare-fun a28() String)
(declare-fun a29() String)
(declare-fun a30() String)
(declare-fun a31() String)
(declare-fun a32() String)
(declare-fun a33() String)
(declare-fun a34() String)
(declare-fun a35() String)
(declare-fun a36() String)
(assert (= a1 "JJJJJJJJJJJJJJJJJJJJJJJJJJJJJJJJJJJJJJJJJJJJJJJJJJJJJJJJJJJJJJJJJJJJJJJJJJJJJJJJJJJJJJJJJJJJJJJJJJJJJJJJJJJJJJJJJJJJJJJJJJJJJJJJJJJJJJJJJJJJJJJJJJJJJJJJJJJJJJJJJJJJJJJJJJJJJJJJJJJJ"))
(assert (= a2 "JJJJJJJJJJJJJJJJJJJJJJJJJJJJJJJJJJJJJJJJJJJJJJJJJJJJJJJJJJJJJJJJJJJJJJJJJJJJJJJJJJJJJJJJJJJJJJJJJJJJJJJJJJJJJJJJJJJJJJJJJJJJJJJJJJJJJJJJJJJJJJJJJJJJJJJJJJJJJJJJJJJJJJJJJJJJJJJJJJJJ"))
(assert (= a3 "JJJJJJJJJJJJJJJJJJJJJJJJJJJJJJJJJJJJJJJJJJJJJJJJJJJJJJJJJJJJJJJJJJJJJJJJJJJJJJJJJJJJJJJJJJJJJJJJJJJJJJJJJJJJJJJJJJJJJJJJJJJJJJJJJJJJJJJJJJJJJJJJJJJJJJJJJJJJJJJJJJJJJJJJJJJJJJJJJJJJ"))
(assert (= a4 "JJJJJJJJJJJJJJJJJJJJJJJJJJJJJJJJJJJJJJJJJJJJJJJJJJJJJJJJJJJJJJJJJJJJJJJJJJJJJJJJJJJJJJJJJJJJJJJJJJJJJJJJJJJJJJJJJJJJJJJJJJJJJJJJJJJJJJJJJJJJJJJJJJJJJJJJJJJJJJJJJJJJJJJJJJJJJJJJJJJJ"))
(assert (= a5 "JJJJJJJJJJJJJJJJJJJJJJJJJJJJJJJJJJJJJJJJJJJJJJJJJJJJJJJJJJJJJJJJJJJJJJJJJJJJJJJJJJJJJJJJJJJJJJJJJJJJJJJJJJJJJJJJJJJJJJJJJJJJJJJJJJJJJJJJJJJJJJJJJJJJJJJJJJJJJJJJJJJJJJJJJJJJJJJJJJJJ"))
(assert (= a6 "JJJJJJJJJJJJJJJJJJJJJJJJJJJJJJJJJJJJJJJJJJJJJJJJJJJJJJJJJJJJJJJJJJJJJJJJJJJJJJJJJJJJJJJJJJJJJJJJJJJJJJJJJJJJJJJJJJJJJJJJJJJJJJJJJJJJJJJJJJJJJJJJJJJJJJJJJJJJJJJJJJJJJJJJJJJJJJJJJJJJ"))
(assert (= a7 "JJJJJJJJJJJJJJJJJJJJJJJJJJJJJJJJJJJJJJJJJJJJJJJJJJJJJJJJJJJJJJJJJJJJJJJJJJJJJJJJJJJJJJJJJJJJJJJJJJJJJJJJJJJJJJJJJJJJJJJJJJJJJJJJJJJJJJJJJJJJJJJJJJJJJJJJJJJJJJJJJJJJJJJJJJJJJJJJJJJJ"))
(assert (= a8 "JJJJJJJJJJJJJJJJJJJJJJJJJJJJJJJJJJJJJJJJJJJJJJJJJJJJJJJJJJJJJJJJJJJJJJJJJJJJJJJJJJJJJJJJJJJJJJJJJJJJJJJJJJJJJJJJJJJJJJJJJJJJJJJJJJJJJJJJJJJJJJJJJJJJJJJJJJJJJJJJJJJJJJJJJJJJJJJJJJJJ"))
(assert (= a9 "JJJJJJJJJJJJJJJJJJJJJJJJJJJJJJJJJJJJJJJJJJJJJJJJJJJJJJJJJJJJJJJJJJJJJJJJJJJJJJJJJJJJJJJJJJJJJJJJJJJJJJJJJJJJJJJJJJJJJJJJJJJJJJJJJJJJJJJJJJJJJJJJJJJJJJJJJJJJJJJJJJJJJJJJJJJJJJJJJJJJ"))
(assert (= a10 "JJJJJJJJJJJJJJJJJJJJJJJJJJJJJJJJJJJJJJJJJJJJJJJJJJJJJJJJJJJJJJJJJJJJJJJJJJJJJJJJJJJJJJJJJJJJJJJJJJJJJJJJJJJJJJJJJJJJJJJJJJJJJJJJJJJJJJJJJJJJJJJJJJJJJJJJJJJJJJJJJJJJJJJJJJJJJJJJJJJJ"))
(assert (= a11 "JJJJJJJJJJJJJJJJJJJJJJJJJJJJJJJJJJJJJJJJJJJJJJJJJJJJJJJJJJJJJJJJJJJJJJJJJJJJJJJJJJJJJJJJJJJJJJJJJJJJJJJJJJJJJJJJJJJJJJJJJJJJJJJJJJJJJJJJJJJJJJJJJJJJJJJJJJJJJJJJJJJJJJJJJJJJJJJJJJJJ"))
(assert (= a12 "JJJJJJJJJJJJJJJJJJJJJJJJJJJJJJJJJJJJJJJJJJJJJJJJJJJJJJJJJJJJJJJJJJJJJJJJJJJJJJJJJJJJJJJJJJJJJJJJJJJJJJJJJJJJJJJJJJJJJJJJJJJJJJJJJJJJJJJJJJJJJJJJJJJJJJJJJJJJJJJJJJJJJJJJJJJJJJJJJJJJ"))
(assert (= a13 "JJJJJJJJJJJJJJJJJJJJJJJJJJJJJJJJJJJJJJJJJJJJJJJJJJJJJJJJJJJJJJJJJJJJJJJJJJJJJJJJJJJJJJJJJJJJJJJJJJJJJJJJJJJJJJJJJJJJJJJJJJJJJJJJJJJJJJJJJJJJJJJJJJJJJJJJJJJJJJJJJJJJJJJJJJJJJJJJJJJJ"))
(assert (= a14 "JJJJJJJJJJJJJJJJJJJJJJJJJJJJJJJJJJJJJJJJJJJJJJJJJJJJJJJJJJJJJJJJJJJJJJJJJJJJJJJJJJJJJJJJJJJJJJJJJJJJJJJJJJJJJJJJJJJJJJJJJJJJJJJJJJJJJJJJJJJJJJJJJJJJJJJJJJJJJJJJJJJJJJJJJJJJJJJJJJJJ"))
(assert (= a15 "JJJJJJJJJJJJJJJJJJJJJJJJJJJJJJJJJJJJJJJJJJJJJJJJJJJJJJJJJJJJJJJJJJJJJJJJJJJJJJJJJJJJJJJJJJJJJJJJJJJJJJJJJJJJJJJJJJJJJJJJJJJJJJJJJJJJJJJJJJJJJJJJJJJJJJJJJJJJJJJJJJJJJJJJJJJJJJJJJJJJ"))
(assert (= a16 "JJJJJJJJJJJJJJJJJJJJJJJJJJJJJJJJJJJJJJJJJJJJJJJJJJJJJJJJJJJJJJJJJJJJJJJJJJJJJJJJJJJJJJJJJJJJJJJJJJJJJJJJJJJJJJJJJJJJJJJJJJJJJJJJJJJJJJJJJJJJJJJJJJJJJJJJJJJJJJJJJJJJJJJJJJJJJJJJJJJJ"))
(assert (= a17 "JJJJJJJJJJJJJJJJJJJJJJJJJJJJJJJJJJJJJJJJJJJJJJJJJJJJJJJJJJJJJJJJJJJJJJJJJJJJJJJJJJJJJJJJJJJJJJJJJJJJJJJJJJJJJJJJJJJJJJJJJJJJJJJJJJJJJJJJJJJJJJJJJJJJJJJJJJJJJJJJJJJJJJJJJJJJJJJJJJJJ"))
(assert (= a18 "JJJJJJJJJJJJJJJJJJJJJJJJJJJJJJJJJJJJJJJJJJJJJJJJJJJJJJJJJJJJJJJJJJJJJJJJJJJJJJJJJJJJJJJJJJJJJJJJJJJJJJJJJJJJJJJJJJJJJJJJJJJJJJJJJJJJJJJJJJJJJJJJJJJJJJJJJJJJJJJJJJJJJJJJJJJJJJJJJJJJ"))
(assert (= a19 "JJJJJJJJJJJJJJJJJJJJJJJJJJJJJJJJJJJJJJJJJJJJJJJJJJJJJJJJJJJJJJJJJJJJJJJJJJJJJJJJJJJJJJJJJJJJJJJJJJJJJJJJJJJJJJJJJJJJJJJJJJJJJJJJJJJJJJJJJJJJJJJJJJJJJJJJJJJJJJJJJJJJJJJJJJJJJJJJJ"))
(assert (= a20 "JJJJJJJJJJJJJJJJJJJJJJJJJJJJJJJJJJJJJJJJJJJJJJJJJJJJJJJJJJJJJJJJJJJJJJJJJJJJJJJJJJJJJJJJJJJJJJJJJJJJJJJJJJJJJJJJJJJJJJJJJJJJJJJJJJJJJJJJJJJJJJJJJJJJJJJJJJJJJJJJJJJJJJJJJJJJJJJJJ"))
(assert (= a21 "JJJJJJJJJJJJJJJJJJJJJJJJJJJJJJJJJJJJJJJJJJJJJJJJJJJJJJJJJJJJJJJJJJJJJJJJJJJJJJJJJJJJJJJJJJJJJJJJJJJJJJJJJJJJJJJJJJJJJJJJJJJJJJJJJJJJJJJJJJJJJJJJJJJJJJJJJJJJJJJJJJJJJJJJJJJJJJJJJ"))
(assert (= a22 "JJJJJJJJJJJJJJJJJJJJJJJJJJJJJJJJJJJJJJJJJJJJJJJJJJJJJJJJJJJJJJJJJJJJJJJJJJJJJJJJJJJJJJJJJJJJJJJJJJJJJJJJJJJJJJJJJJJJJJJJJJJJJJJJJJJJJJJJJJJJJJJJJJJJJJJJJJJJJJJJJJJJJJJJJJJJJJJJJ"))
(assert (= a23 "JJJJJJJJJJJJJJJJJJJJJJJJJJJJJJJJJJJJJJJJJJJJJJJJJJJJJJJJJJJJJJJJJJJJJJJJJJJJJJJJJJJJJJJJJJJJJJJJJJJJJJJJJJJJJJJJJJJJJJJJJJJJJJJJJJJJJJJJJJJJJJJJJJJJJJJJJJJJJJJJJJJJJJJJJJJJJJJJJ"))
(assert (= a24 "JJJJJJJJJJJJJJJJJJJJJJJJJJJJJJJJJJJJJJJJJJJJJJJJJJJJJJJJJJJJJJJJJJJJJJJJJJJJJJJJJJJJJJJJJJJJJJJJJJJJJJJJJJJJJJJJJJJJJJJJJJJJJJJJJJJJJJJJJJJJJJJJJJJJJJJJJJJJJJJJJJJJJJJJJJJJJJJJJ"))
(assert (= a25 "JJJJJJJJJJJJJJJJJJJJJJJJJJJJJJJJJJJJJJJJJJJJJJJJJJJJJJJJJJJJJJJJJJJJJJJJJJJJJJJJJJJJJJJJJJJJJJJJJJJJJJJJJJJJJJJJJJJJJJJJJJJJJJJJJJJJJJJJJJJJJJJJJJJJJJJJJJJJJJJJJJJJJJJJJJJJJJJJJ"))
(assert (= a26 "JJJJJJJJJJJJJJJJJJJJJJJJJJJJJJJJJJJJJJJJJJJJJJJJJJJJJJJJJJJJJJJJJJJJJJJJJJJJJJJJJJJJJJJJJJJJJJJJJJJJJJJJJJJJJJJJJJJJJJJJJJJJJJJJJJJJJJJJJJJJJJJJJJJJJJJJJJJJJJJJJJJJJJJJJJJJJJJJJ"))
(assert (= a27 "JJJJJJJJJJJJJJJJJJJJJJJJJJJJJJJJJJJJJJJJJJJJJJJJJJJJJJJJJJJJJJJJJJJJJJJJJJJJJJJJJJJJJJJJJJJJJJJJJJJJJJJJJJJJJJJJJJJJJJJJJJJJJJJJJJJJJJJJJJJJJJJJJJJJJJJJJJJJJJJJJJJJJJJJJJJJJJJJJ"))
(assert (= a28 "JJJJJJJJJJJJJJJJJJJJJJJJJJJJJJJJJJJJJJJJJJJJJJJJJJJJJJJJJJJJJJJJJJJJJJJJJJJJJJJJJJJJJJJJJJJJJJJJJJJJJJJJJJJJJJJJJJJJJJJJJJJJJJJJJJJJJJJJJJJJJJJJJJJJJJJJJJJJJJJJJJJJJJJJJJJJJJJJJ"))
(assert (= a29 "JJJJJJJJJJJJJJJJJJJJJJJJJJJJJJJJJJJJJJJJJJJJJJJJJJJJJJJJJJJJJJJJJJJJJJJJJJJJJJJJJJJJJJJJJJJJJJJJJJJJJJJJJJJJJJJJJJJJJJJJJJJJJJJJJJJJJJJJJJJJJJJJJJJJJJJJJJJJJJJJJJJJJJJJJJJJJJJJJ"))
(assert (= a30 "JJJJJJJJJJJJJJJJJJJJJJJJJJJJJJJJJJJJJJJJJJJJJJJJJJJJJJJJJJJJJJJJJJJJJJJJJJJJJJJJJJJJJJJJJJJJJJJJJJJJJJJJJJJJJJJJJJJJJJJJJJJJJJJJJJJJJJJJJJJJJJJJJJJJJJJJJJJJJJJJJJJJJJJJJJJJJJJJJ"))
(assert (= a31 "JJJJJJJJJJJJJJJJJJJJJJJJJJJJJJJJJJJJJJJJJJJJJJJJJJJJJJJJJJJJJJJJJJJJJJJJJJJJJJJJJJJJJJJJJJJJJJJJJJJJJJJJJJJJJJJJJJJJJJJJJJJJJJJJJJJJJJJJJJJJJJJJJJJJJJJJJJJJJJJJJJJJJJJJJJJJJJJJJ"))
(assert (= a32 "JJJJJJJJJJJJJJJJJJJJJJJJJJJJJJJJJJJJJJJJJJJJJJJJJJJJJJJJJJJJJJJJJJJJJJJJJJJJJJJJJJJJJJJJJJJJJJJJJJJJJJJJJJJJJJJJJJJJJJJJJJJJJJJJJJJJJJJJJJJJJJJJJJJJJJJJJJJJJJJJJJJJJJJJJJJJJJJJJ"))
(assert (= a33 "JJJJJJJJJJJJJJJJJJJJJJJJJJJJJJJJJJJJJJJJJJJJJJJJJJJJJJJJJJJJJJJJJJJJJJJJJJJJJJJJJJJJJJJJJJJJJJJJJJJJJJJJJJJJJJJJJJJJJJJJJJJJJJJJJJJJJJJJJJJJJJJJJJJJJJJJJJJJJJJJJJJJJJJJJJJJJJJJJ"))
(assert (= a34 "JJJJJJJJJJJJJJJJJJJJJJJJJJJJJJJJJJJJJJJJJJJJJJJJJJJJJJJJJJJJJJJJJJJJJJJJJJJJJJJJJJJJJJJJJJJJJJJJJJJJJJJJJJJJJJJJJJJJJJJJJJJJJJJJJJJJJJJJJJJJJJJJJJJJJJJJJJJJJJJJJJJJJJJJJJJJJJJJJ"))
(assert (= a35 "JJJJJJJJJJJJJJJJJJJJJJJJJJJJJJJJJJJJJJJJJJJJJJJJJJJJJJJJJJJJJJJJJJJJJJJJJJJJJJJJJJJJJJJJJJJJJJJJJJJJJJJJJJJJJJJJJJJJJJJJJJJJJJJJJJJJJJJJJJJJJJJJJJJJJJJJJJJJJJJJJJJJJJJJJJJJJJJJJ"))
(assert (= a36 "JJJJJJJJJJJJJJJJJJJJJJJJJJJJJJJJJJJJJJJJJJJJJJJJJJJJJJJJJJJJJJJJJJJJJJJJJJJJJJJJJJJJJJJJJJJJJJJJJJJJJJJJJJJJJJJJJJJJJJJJJJJJJJJJJJJJJJJJJJJJJJJJJJJJJJJJJJJJJJJJJJJJJJJJJJJJJJJJJ"))
(assert (str.contains (str.++ a17 a17 a2 a9 a7 a11 a10 a2 a15 a13 a8 a7 a9 a12 a11 a14 a2 a2 a18 a10 a10 a8 a2 a7 a12 a13 a16 a5 a13 a2 a4 a16 a14 a10 a12 a1 a2 a7 a6 a17 a2 a11 a8 a12 a7 a18 a10 a14 a7 a17 a16 a12 a5 a9 a17 a17 a10 a3 a10 a18 a14 a18 a8 a16 a3 a4 a15 a15 a4 a10 a13 a4 a16 a18 a1 a7 a7 a7 a15 a1 a9 a16 a13 a8 a7 a3 a14 a16 a14 a12 a7 a12 a18 a16 a9 a18 a4 a15 a6 a8 a2 a10 a10 a2 a6 a15 a9 a17 a1 a17 a11 a16 a12 a13 a1 a1 a1 a11 a5 a7 a8 a13 a18 a17 a11 a13 a10 a14 a9 a9 a3 a14 a18 a8 a17 a8 a17 a16 a18 a10 a12 a8 a17 a4 a17 a6 a16 a10 a3 a16 a1 a14 a15 a11 a2 a8 a1 a13 a15 a14 a6 a14 a1 a9 a6 a5 a4 a4 a9 a6 a4 a5 a10 a17 a14 a17 a2 a14 a6 a18 a2 a17 a8 a9 a14 a7 a12 a14 a8 a17 a9 a11 a18 a8 a17 a18 a14 a16 a3 a8 a17 a13 a3 a16 a5 a18 a3 a13 a11 a10 a12 a11 a4 a10 a1 a5 a10 a9 a16 a16 a6 a3 a7 a18 a8 a6 a6 a6 a5 a7 a5 a11 a15 a12 a4 a15 a9 a10 a17 a9 a9 a1 a13 a9 a11 a3 a8 a10 a6 a2 a17 a13 a6 a12 a2 a12 a5 a13 a5 a9 a1 a8 a3 a12 a7 a13 a10 a5 a10 a8 a13 a6 a17 a12 a16 a1 a13 a3 a14 a13 a2 a15 a4 a9 a12 a2 a10 a4 a13 a6 a5 a8 a6 a5 a12 a2 a9 a11 a15 a14 a11 a9 a2 a11 a16 a1 a9 a14 a7 a8 a3 a3 a16 a12 a10 a14 a4 a4 a18 a15 a3 a3 a17 a10 a5 a8 a7 a13 a6 a2 a12 a18 a17 a1 a5 a5 a5 a18 a6 a15 a6 a10 a10 a17 a1 a8 a14 a12 a13 a7 a15 a1 a16 a9 a14 a11 a16 a18 a2 a3 a11 a12 a8 a7 a10 a9 a18 a3 a4 a8 a12 a13 a2 a15 a8 a14 a12 a12 a10 a14 a15 a17 a10 a14 a1 a12 a1 a6 a8 a14 a3 a17 a18 a16 a14 a3 a1 a9 a11 a14 a16 a15 a13 a18 a13 a15 a12 a5 a14 a6 a2 a14 a1 a16 a16 a5 a14 a4 a12 a18 a4 a14 a2 a14 a16 a18 a17 a7 a18 a13 a13 a16 a8 a14 a14 a10 a6 a9 a16 a17 a16 a9 a18 a15 a14 a16 a5 a6 a11 a4 a13 a4 a5 a9 a9 a18 a10 a3 a6 a2 a2 a4 a13 a6 a1 a13 a6 a7 a13 a18 a15 a18 a12 a8 a17 a13 a9 a5 a6 a10 a16 a18 a16 a9 a14 a9 a5 a9 a7 a2 a2 a6 a1 a17 a8 a12 a11 a8 a9 a17 a13 a4 a15 a2 a16 a3 a2 a2 a5 a14 a14 a2 a9 a4 a13 a6 a14 a3 a6 a17 a4 a12 a8 a6 a14 a17 a6 a18 a11 a4 a11 a13 a13 a10 a15 a10 a17 a13 a13 a11 a18 a13 a10 a15 a18 a13 a8 a8 a6 a6 a15 a18 a9 a5 a11 a11 a16 a15 a13 a13 a6 a8 a13 a13 a3 a7 a14 a13 a3 a16 a11 a13 a3 a15 a9 a17 a8 a15 a2 a6 a15 a9 a10 a3 a18 a2 a8 a11 a14 a5 a2 a7 a1 a5 a18 a8 a12 a7 a6 a6 a4 a14 a2 a7 a9 a2 a3 a18 a8 a5 a6 a17 a3 a17 a16 a18 a12 a3 a13 a4 a15 a5 a5 a3 a1 a10 a10 a17 a15 a10 a10 a2 a12 a2 a6 a2 a6 a7 a2 a6 a6 a10 a2 a8 a18 a7 a15 a7 a12 a11 a3 a12 a10 a11 a13 a16 a9 a17 a18 a12 a16 a1 a7 a7 a11 a1 a13 a17 a18 a4 a5 a10 a10 a10 a13 a7 a14 a13 a17 a5 a11 a1 a3 a12 a13 a3 a7 a11 a12 a1 a1 a7 a6 a14 a18 a12 a7 a10 a2 a8 a1 a12 a13 a14 a6 a8 a13 a8 a4 a13 a6 a7 a8 a6 a1 a11 a18 a16 a15 a15 a2 a14 a11 a10 a3 a6 a12 a4 a4 a7 a10 a14 a18 a10 a3 a9 a12 a15 a15 a15 a18 a15 a15 a10 a7 a6 a2 a18 a10 a4 a9 a1 a1 a4 a15 a1 a7 a4 a14 a8 a1 a15 a3 a16 a14 a1 a11 a5 a17 a3 a8 a14 a17 a12 a2 a12 a15 a2 a7 a14 a18 a12 a13 a2 a3 a13 a17 a9 a9 a5 a15 a5 a1 a15 a11 a2 a12 a9 a9 a4 a18 a12 a18 a8 a5 a13 a6 a6 a7 a12 a3 a12 a7 a1 a4 a15 a14 a16 a15 a12 a6 a4 a5 a9 a17 a8 a11 a15 a15 a13 a7 a5 a18 a10 a3 a5 a8 a15 a6 a6 a10 a8 a6 a17 a7 a6 a10 a17 a3 a16 a12 a13 a7 a16 a2 a13 a18 a12 a5 a16 a11 a16 a17 a2 a6 a9 a4 a7 a13 a14 a7 a5 a3 a1 a10 a17 a3 a11 a18 a10 a1 a7 a3 a6 a15 a3 a3 a15 a9 a6 a8 a7 a15 a13 a16 a3 a17 a8 a18 a14 a14 a16 a5 a16 a1 a12 a13 a14 a15 a7 a13 a15 a15 a17 a7 a14 a4 a2 a2 a1 a5 a18 a1 a14 a3 a17 a11 a7 a13 a4 a2 a13 a16 a13 a2 a6 a8 a9 a11 a17 a4 a8 a11 a13 a16 a16 a14 a1 a9 a9 a4 a11 a7 a1 a2 a13 a12 a9 a7 a13 a6 a14 a11 a2 a2 a15 a7 a9 a9 a3 a4 a17 a10 a18 a7 a7 a13 a5 a9 a3 a5 a10 a5 a17 a17 a11 a14 a5 a12 a9 a17 a10 a17 a1 a10 a8 a5 a1 a13 a13 a1 a2 a13 a3 a15 a12 a13 a13 a15 a18 a4 a17 a7  "0" a24 a31 a34 a24 a22 a35 a28 a36 a21 a20 a27 a33 a27 a30 a29 a30 a30 a25 a34 a29 a35 a35 a36 a30 a22 a33 a36 a20 a35 a26 a35 a27 a20 a34 a27 a19 a30 a27 a24 a28 a34 a35 a25 a19 a26 a20 a21 a20 a24 a35 a26 a29 a21 a34 a31 a34 a29 a36 a23 a24 a24 a23 a29 a20 a23 a24 a35 a33 a35 a35 a36 a27 a27 a34 a21 a19 a33 a32 a20 a36 a27 a20 a25 a29 a22 a20 a21 a28 a30 a19 a33 a20 a35 a25 a35 a33 a34 a19 a21 a31 a22 a35 a21 a36 a22 a21 a19 a22 a23 a36 a36 a28 a33 a32 a19 a32 a26 a35 a20 a25 a36 a19 a30 a24 a23 a30 a33 a23 a23 a20 a34 a29 a35 a35 a20 a31 a19 a25 a23 a27 a20 a32 a23 a22 a29 a36 a33 a23 a26 a22 a31 a35 a32 a30 a35 a36 a33 a28 a36 a22 a22 a29 a28 a31 a23 a22 a27 a35 a24 a29 a19 a32 a35 a30 a31 a33 a28 a33 a34 a35 a32 a24 a33 a28 a34 a26 a29 a35 a19 a21 a32 a33 a21 a33 a20 a31 a23 a34 a32 a23 a32 a21 a34 ) (str.++ a30 a32 a23 a32 a33 a29 a20 a32 a32 a23 a25 a30 a29 a23 a19 a23 a35 a24 a33 a23 a33 a32 a32 a25 a28 a33 a33 a32 a34 a29 a31 a36 a30 a23 a35 a30 a28 a27 a19 a19 a24 a19 a23 a33 a35 a21 a28 a34 a19 a23 a36 a22 a32 a21 a20 a31 a25 a36 a22 a30 a21 a21 a27 a19 a20 a22 a33 a36 a34 a22 a32 a35 a21 a29 a35 a22 a33 a24 a22 a29 a27 a29 a20 a20 a28 a21 a30 a29 a23 a30 a26 a19 a29 a27 a32 a25 a22 a24 a34 a30 a33 a22 a22 a20 a24 a27 a22 a23 a27 a34 a35 a33 a27 a32 a33 a30 a35 a22 a25 a31 a36 a20 a19 a19 a34 a32 a35 a23 a31 a35 a33 a32 a28 a35 a23 a25 a34 a33 a21 a28 a27 a28 a36 a29 a25 a24 a24 a31 a33 a32 a33 a32 a36 a27 a28 a32 a31 a28 a33 a36 a23 a22 a35 a26 a24 a25 a24 a28 a34 a34 a30 a35 a32 a36 a25 a19 a31 a27 a32 a31 a26 a36 a30 a28 a25 a19 a32 a21 a27 a35 a22 a27 a29 a32 a31 a33 a36 a20 a32 a21  "1")))
(check-sat)
(exit)
